solution status: optimal solution found
objective value:                                    0
$_64_y                                             20 	(obj:0)
$_64_z                                             18 	(obj:0)
$_43_y                                             18 	(obj:0)
$_43_z                                             18 	(obj:0)
$_39_y                                             19 	(obj:0)
$_39_z                                             17 	(obj:0)
$_50_y                                             19 	(obj:0)
$_50_z                                             18 	(obj:0)
